NAME : PR135C.114232.tour
COMMENT : Cost = 0_114232
COMMENT : Found by LKH [Keld Helsgaun] Sun Sep 17 16:52:42 2017
TYPE : TOUR
DIMENSION : 135
TOUR_SECTION
1
8
32
27
28
19
17
5
29
31
38
40
39
64
52
85
98
108
130
135
129
109
110
128
134
120
116
105
100
87
76
72
65
62
61
66
54
49
43
55
48
45
46
57
58
67
70
78
93
94
121
127
126
133
125
122
115
111
104
112
113
124
132
123
114
103
102
90
81
91
92
101
89
82
79
80
69
68
56
47
35
34
22
13
4
12
23
24
21
14
11
3
10
9
15
26
25
33
36
44
59
60
77
88
71
83
95
96
75
84
86
99
106
117
119
131
118
107
97
74
73
63
53
51
41
42
50
37
20
16
2
7
30
18
6
-1
EOF
